33D32945 STP File, STP Format Version 1.0

SECTION Comment
Name    "i080-321"
Creator "Cees Duin"
Remark  "Incidence graph"
END

SECTION Graph
Nodes 80
Edges 3160
E 1 2 306
E 1 3 297
E 1 4 298
E 1 5 296
E 1 6 299
E 1 7 310
E 1 8 306
E 1 9 300
E 1 10 301
E 1 11 298
E 1 12 300
E 1 13 296
E 1 14 296
E 1 15 308
E 1 16 300
E 1 17 300
E 1 18 297
E 1 19 299
E 1 20 295
E 1 21 195
E 1 22 192
E 1 23 202
E 1 24 200
E 1 25 200
E 1 26 201
E 1 27 206
E 1 28 206
E 1 29 190
E 1 30 197
E 1 31 205
E 1 32 206
E 1 33 199
E 1 34 202
E 1 35 204
E 1 36 197
E 1 37 206
E 1 38 200
E 1 39 205
E 1 40 195
E 1 41 208
E 1 42 206
E 1 43 204
E 1 44 194
E 1 45 202
E 1 46 194
E 1 47 200
E 1 48 193
E 1 49 207
E 1 50 205
E 1 51 196
E 1 52 195
E 1 53 197
E 1 54 204
E 1 55 198
E 1 56 206
E 1 57 203
E 1 58 200
E 1 59 202
E 1 60 198
E 1 61 195
E 1 62 199
E 1 63 195
E 1 64 203
E 1 65 203
E 1 66 202
E 1 67 202
E 1 68 196
E 1 69 206
E 1 70 195
E 1 71 199
E 1 72 201
E 1 73 195
E 1 74 197
E 1 75 197
E 1 76 200
E 1 77 213
E 1 78 202
E 1 79 201
E 1 80 202
E 2 3 304
E 2 4 305
E 2 5 296
E 2 6 296
E 2 7 303
E 2 8 306
E 2 9 293
E 2 10 304
E 2 11 304
E 2 12 298
E 2 13 297
E 2 14 298
E 2 15 298
E 2 16 300
E 2 17 298
E 2 18 300
E 2 19 295
E 2 20 305
E 2 21 203
E 2 22 192
E 2 23 199
E 2 24 201
E 2 25 200
E 2 26 202
E 2 27 203
E 2 28 205
E 2 29 194
E 2 30 202
E 2 31 204
E 2 32 188
E 2 33 206
E 2 34 192
E 2 35 197
E 2 36 201
E 2 37 194
E 2 38 200
E 2 39 203
E 2 40 202
E 2 41 202
E 2 42 201
E 2 43 196
E 2 44 198
E 2 45 203
E 2 46 198
E 2 47 201
E 2 48 197
E 2 49 199
E 2 50 185
E 2 51 198
E 2 52 200
E 2 53 205
E 2 54 206
E 2 55 198
E 2 56 202
E 2 57 199
E 2 58 196
E 2 59 204
E 2 60 197
E 2 61 202
E 2 62 199
E 2 63 204
E 2 64 191
E 2 65 200
E 2 66 207
E 2 67 201
E 2 68 206
E 2 69 197
E 2 70 204
E 2 71 197
E 2 72 204
E 2 73 200
E 2 74 197
E 2 75 198
E 2 76 193
E 2 77 190
E 2 78 205
E 2 79 198
E 2 80 211
E 3 4 298
E 3 5 295
E 3 6 297
E 3 7 307
E 3 8 303
E 3 9 304
E 3 10 290
E 3 11 298
E 3 12 295
E 3 13 297
E 3 14 301
E 3 15 300
E 3 16 308
E 3 17 295
E 3 18 301
E 3 19 294
E 3 20 300
E 3 21 193
E 3 22 201
E 3 23 199
E 3 24 209
E 3 25 199
E 3 26 201
E 3 27 210
E 3 28 199
E 3 29 204
E 3 30 202
E 3 31 197
E 3 32 197
E 3 33 207
E 3 34 205
E 3 35 198
E 3 36 204
E 3 37 199
E 3 38 209
E 3 39 192
E 3 40 192
E 3 41 206
E 3 42 200
E 3 43 193
E 3 44 195
E 3 45 201
E 3 46 190
E 3 47 207
E 3 48 204
E 3 49 204
E 3 50 196
E 3 51 202
E 3 52 192
E 3 53 198
E 3 54 199
E 3 55 201
E 3 56 202
E 3 57 208
E 3 58 198
E 3 59 205
E 3 60 198
E 3 61 201
E 3 62 197
E 3 63 197
E 3 64 196
E 3 65 198
E 3 66 202
E 3 67 203
E 3 68 202
E 3 69 197
E 3 70 201
E 3 71 193
E 3 72 197
E 3 73 203
E 3 74 202
E 3 75 206
E 3 76 198
E 3 77 198
E 3 78 199
E 3 79 199
E 3 80 197
E 4 5 297
E 4 6 292
E 4 7 301
E 4 8 297
E 4 9 301
E 4 10 303
E 4 11 302
E 4 12 299
E 4 13 294
E 4 14 301
E 4 15 295
E 4 16 301
E 4 17 304
E 4 18 298
E 4 19 296
E 4 20 300
E 4 21 202
E 4 22 201
E 4 23 205
E 4 24 193
E 4 25 193
E 4 26 198
E 4 27 200
E 4 28 201
E 4 29 201
E 4 30 198
E 4 31 206
E 4 32 200
E 4 33 204
E 4 34 203
E 4 35 203
E 4 36 194
E 4 37 196
E 4 38 202
E 4 39 200
E 4 40 204
E 4 41 204
E 4 42 203
E 4 43 204
E 4 44 200
E 4 45 195
E 4 46 203
E 4 47 196
E 4 48 199
E 4 49 192
E 4 50 194
E 4 51 205
E 4 52 201
E 4 53 200
E 4 54 200
E 4 55 199
E 4 56 197
E 4 57 196
E 4 58 193
E 4 59 206
E 4 60 201
E 4 61 194
E 4 62 202
E 4 63 196
E 4 64 201
E 4 65 195
E 4 66 205
E 4 67 201
E 4 68 201
E 4 69 198
E 4 70 203
E 4 71 202
E 4 72 203
E 4 73 197
E 4 74 207
E 4 75 209
E 4 76 203
E 4 77 199
E 4 78 200
E 4 79 198
E 4 80 211
E 5 6 298
E 5 7 292
E 5 8 287
E 5 9 300
E 5 10 295
E 5 11 307
E 5 12 302
E 5 13 292
E 5 14 300
E 5 15 292
E 5 16 302
E 5 17 299
E 5 18 307
E 5 19 302
E 5 20 295
E 5 21 200
E 5 22 206
E 5 23 204
E 5 24 204
E 5 25 202
E 5 26 201
E 5 27 202
E 5 28 212
E 5 29 198
E 5 30 204
E 5 31 195
E 5 32 190
E 5 33 206
E 5 34 204
E 5 35 202
E 5 36 213
E 5 37 203
E 5 38 203
E 5 39 200
E 5 40 194
E 5 41 197
E 5 42 205
E 5 43 204
E 5 44 192
E 5 45 198
E 5 46 204
E 5 47 202
E 5 48 201
E 5 49 198
E 5 50 200
E 5 51 200
E 5 52 204
E 5 53 204
E 5 54 197
E 5 55 202
E 5 56 196
E 5 57 202
E 5 58 198
E 5 59 202
E 5 60 214
E 5 61 199
E 5 62 200
E 5 63 195
E 5 64 204
E 5 65 200
E 5 66 197
E 5 67 196
E 5 68 202
E 5 69 198
E 5 70 192
E 5 71 203
E 5 72 193
E 5 73 203
E 5 74 203
E 5 75 195
E 5 76 195
E 5 77 193
E 5 78 209
E 5 79 198
E 5 80 201
E 6 7 299
E 6 8 294
E 6 9 301
E 6 10 303
E 6 11 306
E 6 12 305
E 6 13 293
E 6 14 295
E 6 15 301
E 6 16 310
E 6 17 289
E 6 18 297
E 6 19 304
E 6 20 279
E 6 21 198
E 6 22 193
E 6 23 195
E 6 24 198
E 6 25 197
E 6 26 202
E 6 27 195
E 6 28 197
E 6 29 190
E 6 30 197
E 6 31 197
E 6 32 197
E 6 33 201
E 6 34 204
E 6 35 203
E 6 36 209
E 6 37 193
E 6 38 203
E 6 39 199
E 6 40 207
E 6 41 202
E 6 42 198
E 6 43 201
E 6 44 199
E 6 45 199
E 6 46 191
E 6 47 204
E 6 48 206
E 6 49 198
E 6 50 197
E 6 51 213
E 6 52 195
E 6 53 201
E 6 54 192
E 6 55 202
E 6 56 191
E 6 57 192
E 6 58 192
E 6 59 205
E 6 60 200
E 6 61 201
E 6 62 197
E 6 63 198
E 6 64 200
E 6 65 195
E 6 66 198
E 6 67 202
E 6 68 206
E 6 69 198
E 6 70 190
E 6 71 210
E 6 72 201
E 6 73 200
E 6 74 198
E 6 75 200
E 6 76 200
E 6 77 196
E 6 78 195
E 6 79 205
E 6 80 206
E 7 8 296
E 7 9 307
E 7 10 298
E 7 11 302
E 7 12 293
E 7 13 302
E 7 14 297
E 7 15 303
E 7 16 299
E 7 17 296
E 7 18 300
E 7 19 308
E 7 20 304
E 7 21 201
E 7 22 198
E 7 23 204
E 7 24 205
E 7 25 200
E 7 26 197
E 7 27 199
E 7 28 198
E 7 29 199
E 7 30 194
E 7 31 197
E 7 32 198
E 7 33 198
E 7 34 209
E 7 35 195
E 7 36 188
E 7 37 198
E 7 38 206
E 7 39 197
E 7 40 199
E 7 41 203
E 7 42 193
E 7 43 197
E 7 44 199
E 7 45 208
E 7 46 204
E 7 47 200
E 7 48 204
E 7 49 199
E 7 50 198
E 7 51 196
E 7 52 195
E 7 53 199
E 7 54 199
E 7 55 203
E 7 56 200
E 7 57 195
E 7 58 201
E 7 59 206
E 7 60 205
E 7 61 202
E 7 62 201
E 7 63 198
E 7 64 192
E 7 65 191
E 7 66 193
E 7 67 199
E 7 68 204
E 7 69 205
E 7 70 191
E 7 71 199
E 7 72 195
E 7 73 197
E 7 74 193
E 7 75 198
E 7 76 189
E 7 77 201
E 7 78 197
E 7 79 197
E 7 80 193
E 8 9 293
E 8 10 293
E 8 11 299
E 8 12 302
E 8 13 297
E 8 14 298
E 8 15 297
E 8 16 302
E 8 17 300
E 8 18 299
E 8 19 292
E 8 20 300
E 8 21 196
E 8 22 197
E 8 23 202
E 8 24 194
E 8 25 200
E 8 26 190
E 8 27 198
E 8 28 192
E 8 29 209
E 8 30 203
E 8 31 196
E 8 32 207
E 8 33 197
E 8 34 200
E 8 35 196
E 8 36 205
E 8 37 191
E 8 38 206
E 8 39 209
E 8 40 203
E 8 41 197
E 8 42 192
E 8 43 194
E 8 44 198
E 8 45 202
E 8 46 190
E 8 47 196
E 8 48 201
E 8 49 204
E 8 50 211
E 8 51 193
E 8 52 193
E 8 53 203
E 8 54 196
E 8 55 197
E 8 56 196
E 8 57 205
E 8 58 192
E 8 59 193
E 8 60 206
E 8 61 202
E 8 62 206
E 8 63 197
E 8 64 199
E 8 65 195
E 8 66 202
E 8 67 191
E 8 68 202
E 8 69 199
E 8 70 197
E 8 71 215
E 8 72 194
E 8 73 199
E 8 74 191
E 8 75 200
E 8 76 202
E 8 77 197
E 8 78 206
E 8 79 208
E 8 80 196
E 9 10 295
E 9 11 294
E 9 12 292
E 9 13 305
E 9 14 295
E 9 15 300
E 9 16 294
E 9 17 291
E 9 18 302
E 9 19 306
E 9 20 301
E 9 21 195
E 9 22 197
E 9 23 189
E 9 24 198
E 9 25 201
E 9 26 199
E 9 27 202
E 9 28 204
E 9 29 199
E 9 30 202
E 9 31 195
E 9 32 207
E 9 33 195
E 9 34 205
E 9 35 196
E 9 36 197
E 9 37 203
E 9 38 195
E 9 39 206
E 9 40 202
E 9 41 208
E 9 42 207
E 9 43 201
E 9 44 197
E 9 45 201
E 9 46 198
E 9 47 199
E 9 48 190
E 9 49 203
E 9 50 199
E 9 51 201
E 9 52 207
E 9 53 200
E 9 54 204
E 9 55 191
E 9 56 203
E 9 57 193
E 9 58 202
E 9 59 201
E 9 60 195
E 9 61 211
E 9 62 195
E 9 63 201
E 9 64 199
E 9 65 195
E 9 66 200
E 9 67 197
E 9 68 195
E 9 69 195
E 9 70 196
E 9 71 206
E 9 72 189
E 9 73 204
E 9 74 202
E 9 75 204
E 9 76 205
E 9 77 191
E 9 78 196
E 9 79 200
E 9 80 195
E 10 11 301
E 10 12 300
E 10 13 294
E 10 14 297
E 10 15 293
E 10 16 298
E 10 17 311
E 10 18 310
E 10 19 296
E 10 20 298
E 10 21 198
E 10 22 201
E 10 23 198
E 10 24 202
E 10 25 201
E 10 26 209
E 10 27 197
E 10 28 203
E 10 29 186
E 10 30 196
E 10 31 203
E 10 32 200
E 10 33 200
E 10 34 196
E 10 35 200
E 10 36 207
E 10 37 198
E 10 38 197
E 10 39 207
E 10 40 196
E 10 41 194
E 10 42 209
E 10 43 199
E 10 44 201
E 10 45 197
E 10 46 199
E 10 47 192
E 10 48 192
E 10 49 200
E 10 50 205
E 10 51 206
E 10 52 199
E 10 53 203
E 10 54 184
E 10 55 198
E 10 56 195
E 10 57 198
E 10 58 205
E 10 59 201
E 10 60 197
E 10 61 203
E 10 62 198
E 10 63 201
E 10 64 197
E 10 65 202
E 10 66 197
E 10 67 193
E 10 68 194
E 10 69 203
E 10 70 201
E 10 71 200
E 10 72 200
E 10 73 195
E 10 74 192
E 10 75 195
E 10 76 199
E 10 77 201
E 10 78 204
E 10 79 199
E 10 80 199
E 11 12 295
E 11 13 301
E 11 14 301
E 11 15 306
E 11 16 302
E 11 17 291
E 11 18 301
E 11 19 296
E 11 20 299
E 11 21 196
E 11 22 201
E 11 23 198
E 11 24 198
E 11 25 207
E 11 26 198
E 11 27 196
E 11 28 206
E 11 29 202
E 11 30 198
E 11 31 201
E 11 32 195
E 11 33 199
E 11 34 202
E 11 35 199
E 11 36 204
E 11 37 206
E 11 38 197
E 11 39 199
E 11 40 195
E 11 41 195
E 11 42 191
E 11 43 190
E 11 44 191
E 11 45 200
E 11 46 207
E 11 47 199
E 11 48 193
E 11 49 201
E 11 50 204
E 11 51 201
E 11 52 202
E 11 53 193
E 11 54 206
E 11 55 204
E 11 56 196
E 11 57 195
E 11 58 192
E 11 59 205
E 11 60 199
E 11 61 203
E 11 62 198
E 11 63 204
E 11 64 201
E 11 65 192
E 11 66 199
E 11 67 195
E 11 68 195
E 11 69 194
E 11 70 198
E 11 71 198
E 11 72 199
E 11 73 199
E 11 74 197
E 11 75 199
E 11 76 201
E 11 77 205
E 11 78 198
E 11 79 195
E 11 80 203
E 12 13 301
E 12 14 296
E 12 15 297
E 12 16 295
E 12 17 300
E 12 18 297
E 12 19 295
E 12 20 304
E 12 21 196
E 12 22 198
E 12 23 203
E 12 24 203
E 12 25 191
E 12 26 194
E 12 27 211
E 12 28 200
E 12 29 198
E 12 30 195
E 12 31 196
E 12 32 194
E 12 33 201
E 12 34 200
E 12 35 199
E 12 36 206
E 12 37 199
E 12 38 196
E 12 39 205
E 12 40 197
E 12 41 193
E 12 42 198
E 12 43 198
E 12 44 190
E 12 45 201
E 12 46 195
E 12 47 202
E 12 48 198
E 12 49 196
E 12 50 201
E 12 51 199
E 12 52 194
E 12 53 192
E 12 54 195
E 12 55 206
E 12 56 196
E 12 57 199
E 12 58 203
E 12 59 199
E 12 60 199
E 12 61 198
E 12 62 203
E 12 63 198
E 12 64 194
E 12 65 203
E 12 66 199
E 12 67 198
E 12 68 199
E 12 69 198
E 12 70 203
E 12 71 199
E 12 72 205
E 12 73 200
E 12 74 198
E 12 75 198
E 12 76 200
E 12 77 194
E 12 78 188
E 12 79 202
E 12 80 199
E 13 14 302
E 13 15 294
E 13 16 303
E 13 17 294
E 13 18 299
E 13 19 302
E 13 20 295
E 13 21 194
E 13 22 207
E 13 23 199
E 13 24 209
E 13 25 208
E 13 26 196
E 13 27 194
E 13 28 200
E 13 29 194
E 13 30 202
E 13 31 204
E 13 32 192
E 13 33 203
E 13 34 193
E 13 35 204
E 13 36 198
E 13 37 198
E 13 38 203
E 13 39 195
E 13 40 197
E 13 41 199
E 13 42 199
E 13 43 202
E 13 44 199
E 13 45 204
E 13 46 203
E 13 47 193
E 13 48 199
E 13 49 199
E 13 50 191
E 13 51 202
E 13 52 191
E 13 53 205
E 13 54 199
E 13 55 206
E 13 56 193
E 13 57 201
E 13 58 190
E 13 59 206
E 13 60 200
E 13 61 202
E 13 62 196
E 13 63 200
E 13 64 197
E 13 65 200
E 13 66 199
E 13 67 190
E 13 68 199
E 13 69 204
E 13 70 190
E 13 71 193
E 13 72 211
E 13 73 204
E 13 74 202
E 13 75 199
E 13 76 191
E 13 77 198
E 13 78 197
E 13 79 202
E 13 80 199
E 14 15 300
E 14 16 302
E 14 17 303
E 14 18 301
E 14 19 295
E 14 20 295
E 14 21 196
E 14 22 204
E 14 23 199
E 14 24 198
E 14 25 211
E 14 26 213
E 14 27 207
E 14 28 201
E 14 29 199
E 14 30 199
E 14 31 201
E 14 32 203
E 14 33 192
E 14 34 203
E 14 35 189
E 14 36 199
E 14 37 196
E 14 38 206
E 14 39 197
E 14 40 192
E 14 41 188
E 14 42 204
E 14 43 205
E 14 44 197
E 14 45 201
E 14 46 195
E 14 47 197
E 14 48 192
E 14 49 197
E 14 50 202
E 14 51 193
E 14 52 201
E 14 53 204
E 14 54 197
E 14 55 201
E 14 56 205
E 14 57 200
E 14 58 191
E 14 59 200
E 14 60 195
E 14 61 207
E 14 62 202
E 14 63 196
E 14 64 192
E 14 65 198
E 14 66 193
E 14 67 198
E 14 68 197
E 14 69 202
E 14 70 200
E 14 71 203
E 14 72 194
E 14 73 207
E 14 74 197
E 14 75 201
E 14 76 209
E 14 77 202
E 14 78 208
E 14 79 187
E 14 80 210
E 15 16 291
E 15 17 297
E 15 18 304
E 15 19 299
E 15 20 288
E 15 21 196
E 15 22 203
E 15 23 200
E 15 24 196
E 15 25 194
E 15 26 198
E 15 27 204
E 15 28 203
E 15 29 199
E 15 30 195
E 15 31 201
E 15 32 197
E 15 33 201
E 15 34 201
E 15 35 209
E 15 36 195
E 15 37 198
E 15 38 193
E 15 39 199
E 15 40 195
E 15 41 187
E 15 42 201
E 15 43 200
E 15 44 197
E 15 45 197
E 15 46 203
E 15 47 206
E 15 48 201
E 15 49 197
E 15 50 206
E 15 51 202
E 15 52 201
E 15 53 195
E 15 54 199
E 15 55 197
E 15 56 205
E 15 57 204
E 15 58 202
E 15 59 210
E 15 60 201
E 15 61 195
E 15 62 201
E 15 63 200
E 15 64 196
E 15 65 207
E 15 66 190
E 15 67 202
E 15 68 198
E 15 69 201
E 15 70 199
E 15 71 198
E 15 72 202
E 15 73 206
E 15 74 202
E 15 75 202
E 15 76 197
E 15 77 195
E 15 78 203
E 15 79 198
E 15 80 191
E 16 17 301
E 16 18 296
E 16 19 298
E 16 20 297
E 16 21 199
E 16 22 187
E 16 23 203
E 16 24 193
E 16 25 202
E 16 26 198
E 16 27 193
E 16 28 205
E 16 29 197
E 16 30 197
E 16 31 207
E 16 32 202
E 16 33 194
E 16 34 184
E 16 35 196
E 16 36 203
E 16 37 204
E 16 38 201
E 16 39 196
E 16 40 214
E 16 41 183
E 16 42 199
E 16 43 205
E 16 44 209
E 16 45 196
E 16 46 207
E 16 47 196
E 16 48 196
E 16 49 193
E 16 50 197
E 16 51 191
E 16 52 205
E 16 53 196
E 16 54 195
E 16 55 200
E 16 56 200
E 16 57 199
E 16 58 191
E 16 59 196
E 16 60 198
E 16 61 197
E 16 62 196
E 16 63 201
E 16 64 197
E 16 65 198
E 16 66 204
E 16 67 206
E 16 68 200
E 16 69 204
E 16 70 204
E 16 71 192
E 16 72 203
E 16 73 196
E 16 74 205
E 16 75 205
E 16 76 201
E 16 77 200
E 16 78 193
E 16 79 210
E 16 80 192
E 17 18 303
E 17 19 303
E 17 20 295
E 17 21 197
E 17 22 198
E 17 23 196
E 17 24 198
E 17 25 191
E 17 26 192
E 17 27 199
E 17 28 205
E 17 29 201
E 17 30 193
E 17 31 196
E 17 32 201
E 17 33 202
E 17 34 199
E 17 35 199
E 17 36 198
E 17 37 202
E 17 38 210
E 17 39 187
E 17 40 196
E 17 41 211
E 17 42 204
E 17 43 200
E 17 44 197
E 17 45 201
E 17 46 192
E 17 47 205
E 17 48 198
E 17 49 197
E 17 50 202
E 17 51 202
E 17 52 206
E 17 53 204
E 17 54 200
E 17 55 193
E 17 56 197
E 17 57 196
E 17 58 190
E 17 59 203
E 17 60 195
E 17 61 197
E 17 62 198
E 17 63 193
E 17 64 205
E 17 65 195
E 17 66 201
E 17 67 205
E 17 68 191
E 17 69 201
E 17 70 197
E 17 71 194
E 17 72 201
E 17 73 195
E 17 74 207
E 17 75 194
E 17 76 206
E 17 77 200
E 17 78 197
E 17 79 193
E 17 80 203
E 18 19 304
E 18 20 293
E 18 21 196
E 18 22 205
E 18 23 201
E 18 24 197
E 18 25 213
E 18 26 199
E 18 27 203
E 18 28 199
E 18 29 199
E 18 30 198
E 18 31 201
E 18 32 206
E 18 33 207
E 18 34 198
E 18 35 195
E 18 36 201
E 18 37 204
E 18 38 205
E 18 39 205
E 18 40 197
E 18 41 203
E 18 42 203
E 18 43 203
E 18 44 205
E 18 45 202
E 18 46 192
E 18 47 193
E 18 48 199
E 18 49 192
E 18 50 200
E 18 51 198
E 18 52 206
E 18 53 196
E 18 54 189
E 18 55 203
E 18 56 203
E 18 57 203
E 18 58 193
E 18 59 191
E 18 60 197
E 18 61 197
E 18 62 199
E 18 63 198
E 18 64 197
E 18 65 194
E 18 66 201
E 18 67 195
E 18 68 201
E 18 69 201
E 18 70 195
E 18 71 191
E 18 72 206
E 18 73 197
E 18 74 200
E 18 75 200
E 18 76 205
E 18 77 194
E 18 78 193
E 18 79 190
E 18 80 192
E 19 20 299
E 19 21 201
E 19 22 202
E 19 23 194
E 19 24 202
E 19 25 197
E 19 26 200
E 19 27 211
E 19 28 205
E 19 29 208
E 19 30 200
E 19 31 191
E 19 32 203
E 19 33 206
E 19 34 195
E 19 35 196
E 19 36 200
E 19 37 196
E 19 38 206
E 19 39 191
E 19 40 191
E 19 41 198
E 19 42 200
E 19 43 204
E 19 44 199
E 19 45 204
E 19 46 197
E 19 47 198
E 19 48 202
E 19 49 201
E 19 50 202
E 19 51 207
E 19 52 201
E 19 53 200
E 19 54 204
E 19 55 196
E 19 56 198
E 19 57 189
E 19 58 205
E 19 59 200
E 19 60 201
E 19 61 189
E 19 62 199
E 19 63 204
E 19 64 201
E 19 65 188
E 19 66 187
E 19 67 200
E 19 68 209
E 19 69 200
E 19 70 205
E 19 71 196
E 19 72 200
E 19 73 199
E 19 74 207
E 19 75 195
E 19 76 198
E 19 77 199
E 19 78 203
E 19 79 200
E 19 80 203
E 20 21 204
E 20 22 190
E 20 23 199
E 20 24 203
E 20 25 198
E 20 26 199
E 20 27 198
E 20 28 206
E 20 29 201
E 20 30 199
E 20 31 201
E 20 32 194
E 20 33 207
E 20 34 203
E 20 35 204
E 20 36 196
E 20 37 193
E 20 38 194
E 20 39 196
E 20 40 209
E 20 41 195
E 20 42 203
E 20 43 202
E 20 44 197
E 20 45 201
E 20 46 201
E 20 47 194
E 20 48 197
E 20 49 197
E 20 50 204
E 20 51 192
E 20 52 201
E 20 53 200
E 20 54 206
E 20 55 202
E 20 56 203
E 20 57 202
E 20 58 198
E 20 59 194
E 20 60 189
E 20 61 202
E 20 62 192
E 20 63 192
E 20 64 209
E 20 65 196
E 20 66 198
E 20 67 204
E 20 68 201
E 20 69 200
E 20 70 205
E 20 71 197
E 20 72 192
E 20 73 194
E 20 74 201
E 20 75 197
E 20 76 197
E 20 77 198
E 20 78 198
E 20 79 184
E 20 80 205
E 21 22 103
E 21 23 95
E 21 24 95
E 21 25 99
E 21 26 90
E 21 27 100
E 21 28 99
E 21 29 103
E 21 30 100
E 21 31 101
E 21 32 103
E 21 33 103
E 21 34 97
E 21 35 103
E 21 36 99
E 21 37 107
E 21 38 97
E 21 39 92
E 21 40 92
E 21 41 99
E 21 42 101
E 21 43 95
E 21 44 97
E 21 45 94
E 21 46 102
E 21 47 95
E 21 48 102
E 21 49 98
E 21 50 94
E 21 51 103
E 21 52 96
E 21 53 100
E 21 54 97
E 21 55 98
E 21 56 95
E 21 57 100
E 21 58 101
E 21 59 110
E 21 60 101
E 21 61 102
E 21 62 100
E 21 63 99
E 21 64 108
E 21 65 105
E 21 66 98
E 21 67 100
E 21 68 98
E 21 69 101
E 21 70 104
E 21 71 105
E 21 72 98
E 21 73 104
E 21 74 108
E 21 75 91
E 21 76 108
E 21 77 99
E 21 78 102
E 21 79 110
E 21 80 97
E 22 23 97
E 22 24 95
E 22 25 92
E 22 26 100
E 22 27 100
E 22 28 93
E 22 29 116
E 22 30 102
E 22 31 101
E 22 32 90
E 22 33 104
E 22 34 101
E 22 35 96
E 22 36 105
E 22 37 104
E 22 38 93
E 22 39 96
E 22 40 97
E 22 41 107
E 22 42 91
E 22 43 94
E 22 44 105
E 22 45 100
E 22 46 102
E 22 47 101
E 22 48 101
E 22 49 98
E 22 50 98
E 22 51 100
E 22 52 104
E 22 53 98
E 22 54 87
E 22 55 94
E 22 56 90
E 22 57 97
E 22 58 93
E 22 59 107
E 22 60 95
E 22 61 97
E 22 62 93
E 22 63 103
E 22 64 95
E 22 65 96
E 22 66 98
E 22 67 101
E 22 68 95
E 22 69 97
E 22 70 90
E 22 71 105
E 22 72 104
E 22 73 106
E 22 74 93
E 22 75 101
E 22 76 97
E 22 77 95
E 22 78 104
E 22 79 96
E 22 80 102
E 23 24 92
E 23 25 97
E 23 26 93
E 23 27 96
E 23 28 98
E 23 29 102
E 23 30 109
E 23 31 98
E 23 32 95
E 23 33 113
E 23 34 98
E 23 35 95
E 23 36 100
E 23 37 89
E 23 38 105
E 23 39 91
E 23 40 105
E 23 41 104
E 23 42 92
E 23 43 93
E 23 44 103
E 23 45 101
E 23 46 87
E 23 47 98
E 23 48 98
E 23 49 94
E 23 50 91
E 23 51 103
E 23 52 92
E 23 53 108
E 23 54 93
E 23 55 110
E 23 56 104
E 23 57 100
E 23 58 104
E 23 59 94
E 23 60 101
E 23 61 99
E 23 62 96
E 23 63 99
E 23 64 90
E 23 65 96
E 23 66 98
E 23 67 99
E 23 68 105
E 23 69 100
E 23 70 107
E 23 71 95
E 23 72 98
E 23 73 105
E 23 74 100
E 23 75 110
E 23 76 95
E 23 77 98
E 23 78 102
E 23 79 100
E 23 80 100
E 24 25 98
E 24 26 91
E 24 27 94
E 24 28 90
E 24 29 98
E 24 30 93
E 24 31 100
E 24 32 101
E 24 33 104
E 24 34 101
E 24 35 97
E 24 36 102
E 24 37 107
E 24 38 97
E 24 39 106
E 24 40 100
E 24 41 107
E 24 42 111
E 24 43 105
E 24 44 100
E 24 45 91
E 24 46 104
E 24 47 101
E 24 48 96
E 24 49 109
E 24 50 89
E 24 51 105
E 24 52 97
E 24 53 105
E 24 54 98
E 24 55 103
E 24 56 93
E 24 57 101
E 24 58 107
E 24 59 90
E 24 60 100
E 24 61 99
E 24 62 104
E 24 63 93
E 24 64 103
E 24 65 94
E 24 66 100
E 24 67 107
E 24 68 96
E 24 69 95
E 24 70 98
E 24 71 107
E 24 72 89
E 24 73 104
E 24 74 106
E 24 75 103
E 24 76 99
E 24 77 101
E 24 78 103
E 24 79 101
E 24 80 95
E 25 26 97
E 25 27 103
E 25 28 103
E 25 29 91
E 25 30 96
E 25 31 103
E 25 32 105
E 25 33 88
E 25 34 96
E 25 35 102
E 25 36 95
E 25 37 103
E 25 38 105
E 25 39 92
E 25 40 104
E 25 41 110
E 25 42 104
E 25 43 93
E 25 44 96
E 25 45 104
E 25 46 100
E 25 47 106
E 25 48 91
E 25 49 94
E 25 50 107
E 25 51 96
E 25 52 108
E 25 53 110
E 25 54 99
E 25 55 104
E 25 56 98
E 25 57 102
E 25 58 93
E 25 59 98
E 25 60 93
E 25 61 102
E 25 62 97
E 25 63 101
E 25 64 95
E 25 65 95
E 25 66 97
E 25 67 100
E 25 68 106
E 25 69 104
E 25 70 89
E 25 71 100
E 25 72 83
E 25 73 110
E 25 74 103
E 25 75 89
E 25 76 98
E 25 77 95
E 25 78 97
E 25 79 96
E 25 80 101
E 26 27 101
E 26 28 103
E 26 29 96
E 26 30 99
E 26 31 97
E 26 32 103
E 26 33 104
E 26 34 98
E 26 35 98
E 26 36 100
E 26 37 94
E 26 38 102
E 26 39 97
E 26 40 100
E 26 41 110
E 26 42 103
E 26 43 101
E 26 44 94
E 26 45 101
E 26 46 100
E 26 47 95
E 26 48 105
E 26 49 97
E 26 50 94
E 26 51 104
E 26 52 105
E 26 53 98
E 26 54 106
E 26 55 101
E 26 56 97
E 26 57 104
E 26 58 108
E 26 59 103
E 26 60 93
E 26 61 98
E 26 62 94
E 26 63 99
E 26 64 102
E 26 65 99
E 26 66 95
E 26 67 103
E 26 68 91
E 26 69 97
E 26 70 100
E 26 71 98
E 26 72 108
E 26 73 106
E 26 74 96
E 26 75 97
E 26 76 107
E 26 77 100
E 26 78 100
E 26 79 110
E 26 80 105
E 27 28 98
E 27 29 96
E 27 30 91
E 27 31 96
E 27 32 104
E 27 33 111
E 27 34 104
E 27 35 104
E 27 36 105
E 27 37 107
E 27 38 99
E 27 39 97
E 27 40 95
E 27 41 99
E 27 42 90
E 27 43 97
E 27 44 97
E 27 45 92
E 27 46 101
E 27 47 103
E 27 48 111
E 27 49 96
E 27 50 93
E 27 51 89
E 27 52 94
E 27 53 94
E 27 54 96
E 27 55 89
E 27 56 87
E 27 57 97
E 27 58 105
E 27 59 94
E 27 60 106
E 27 61 99
E 27 62 114
E 27 63 100
E 27 64 104
E 27 65 95
E 27 66 89
E 27 67 95
E 27 68 100
E 27 69 86
E 27 70 101
E 27 71 103
E 27 72 92
E 27 73 96
E 27 74 106
E 27 75 102
E 27 76 100
E 27 77 95
E 27 78 100
E 27 79 98
E 27 80 103
E 28 29 100
E 28 30 95
E 28 31 102
E 28 32 99
E 28 33 100
E 28 34 93
E 28 35 102
E 28 36 93
E 28 37 109
E 28 38 104
E 28 39 102
E 28 40 102
E 28 41 95
E 28 42 104
E 28 43 101
E 28 44 101
E 28 45 99
E 28 46 95
E 28 47 87
E 28 48 91
E 28 49 104
E 28 50 97
E 28 51 105
E 28 52 95
E 28 53 101
E 28 54 103
E 28 55 98
E 28 56 91
E 28 57 84
E 28 58 105
E 28 59 96
E 28 60 95
E 28 61 97
E 28 62 99
E 28 63 94
E 28 64 108
E 28 65 96
E 28 66 95
E 28 67 95
E 28 68 105
E 28 69 99
E 28 70 106
E 28 71 103
E 28 72 98
E 28 73 96
E 28 74 94
E 28 75 91
E 28 76 92
E 28 77 104
E 28 78 107
E 28 79 97
E 28 80 103
E 29 30 106
E 29 31 101
E 29 32 96
E 29 33 95
E 29 34 101
E 29 35 96
E 29 36 102
E 29 37 100
E 29 38 92
E 29 39 109
E 29 40 99
E 29 41 91
E 29 42 93
E 29 43 94
E 29 44 92
E 29 45 100
E 29 46 98
E 29 47 96
E 29 48 99
E 29 49 104
E 29 50 102
E 29 51 98
E 29 52 101
E 29 53 110
E 29 54 103
E 29 55 96
E 29 56 96
E 29 57 99
E 29 58 112
E 29 59 94
E 29 60 93
E 29 61 96
E 29 62 102
E 29 63 93
E 29 64 103
E 29 65 99
E 29 66 104
E 29 67 107
E 29 68 101
E 29 69 100
E 29 70 101
E 29 71 103
E 29 72 106
E 29 73 106
E 29 74 103
E 29 75 102
E 29 76 100
E 29 77 108
E 29 78 102
E 29 79 102
E 29 80 96
E 30 31 104
E 30 32 102
E 30 33 94
E 30 34 92
E 30 35 97
E 30 36 99
E 30 37 98
E 30 38 87
E 30 39 99
E 30 40 88
E 30 41 98
E 30 42 105
E 30 43 97
E 30 44 104
E 30 45 111
E 30 46 90
E 30 47 100
E 30 48 100
E 30 49 108
E 30 50 100
E 30 51 111
E 30 52 97
E 30 53 95
E 30 54 99
E 30 55 101
E 30 56 102
E 30 57 101
E 30 58 96
E 30 59 98
E 30 60 104
E 30 61 99
E 30 62 91
E 30 63 102
E 30 64 98
E 30 65 103
E 30 66 102
E 30 67 103
E 30 68 102
E 30 69 100
E 30 70 105
E 30 71 100
E 30 72 98
E 30 73 95
E 30 74 103
E 30 75 96
E 30 76 102
E 30 77 101
E 30 78 95
E 30 79 96
E 30 80 96
E 31 32 101
E 31 33 93
E 31 34 106
E 31 35 99
E 31 36 92
E 31 37 102
E 31 38 101
E 31 39 100
E 31 40 100
E 31 41 100
E 31 42 102
E 31 43 98
E 31 44 89
E 31 45 114
E 31 46 100
E 31 47 98
E 31 48 104
E 31 49 109
E 31 50 102
E 31 51 101
E 31 52 98
E 31 53 91
E 31 54 92
E 31 55 99
E 31 56 107
E 31 57 102
E 31 58 92
E 31 59 102
E 31 60 98
E 31 61 101
E 31 62 104
E 31 63 100
E 31 64 88
E 31 65 95
E 31 66 104
E 31 67 95
E 31 68 102
E 31 69 100
E 31 70 105
E 31 71 102
E 31 72 104
E 31 73 87
E 31 74 93
E 31 75 104
E 31 76 94
E 31 77 100
E 31 78 105
E 31 79 100
E 31 80 93
E 32 33 103
E 32 34 99
E 32 35 96
E 32 36 102
E 32 37 99
E 32 38 100
E 32 39 101
E 32 40 106
E 32 41 103
E 32 42 100
E 32 43 103
E 32 44 95
E 32 45 92
E 32 46 99
E 32 47 101
E 32 48 99
E 32 49 89
E 32 50 101
E 32 51 102
E 32 52 102
E 32 53 108
E 32 54 102
E 32 55 96
E 32 56 102
E 32 57 95
E 32 58 95
E 32 59 104
E 32 60 102
E 32 61 87
E 32 62 94
E 32 63 96
E 32 64 103
E 32 65 107
E 32 66 91
E 32 67 101
E 32 68 93
E 32 69 91
E 32 70 90
E 32 71 94
E 32 72 98
E 32 73 98
E 32 74 105
E 32 75 101
E 32 76 92
E 32 77 94
E 32 78 100
E 32 79 106
E 32 80 95
E 33 34 89
E 33 35 100
E 33 36 106
E 33 37 97
E 33 38 103
E 33 39 96
E 33 40 97
E 33 41 100
E 33 42 103
E 33 43 100
E 33 44 102
E 33 45 112
E 33 46 93
E 33 47 99
E 33 48 102
E 33 49 106
E 33 50 101
E 33 51 106
E 33 52 95
E 33 53 104
E 33 54 97
E 33 55 107
E 33 56 108
E 33 57 95
E 33 58 103
E 33 59 107
E 33 60 109
E 33 61 103
E 33 62 90
E 33 63 98
E 33 64 99
E 33 65 109
E 33 66 95
E 33 67 95
E 33 68 92
E 33 69 99
E 33 70 101
E 33 71 105
E 33 72 98
E 33 73 91
E 33 74 101
E 33 75 98
E 33 76 91
E 33 77 101
E 33 78 104
E 33 79 93
E 33 80 111
E 34 35 103
E 34 36 105
E 34 37 102
E 34 38 98
E 34 39 97
E 34 40 105
E 34 41 101
E 34 42 100
E 34 43 104
E 34 44 103
E 34 45 110
E 34 46 102
E 34 47 102
E 34 48 86
E 34 49 108
E 34 50 100
E 34 51 101
E 34 52 97
E 34 53 94
E 34 54 96
E 34 55 97
E 34 56 102
E 34 57 101
E 34 58 106
E 34 59 81
E 34 60 105
E 34 61 101
E 34 62 95
E 34 63 99
E 34 64 95
E 34 65 92
E 34 66 97
E 34 67 100
E 34 68 95
E 34 69 98
E 34 70 103
E 34 71 97
E 34 72 99
E 34 73 99
E 34 74 95
E 34 75 89
E 34 76 103
E 34 77 100
E 34 78 95
E 34 79 103
E 34 80 91
E 35 36 98
E 35 37 100
E 35 38 105
E 35 39 100
E 35 40 99
E 35 41 98
E 35 42 100
E 35 43 91
E 35 44 103
E 35 45 101
E 35 46 93
E 35 47 104
E 35 48 100
E 35 49 100
E 35 50 100
E 35 51 95
E 35 52 109
E 35 53 92
E 35 54 103
E 35 55 108
E 35 56 103
E 35 57 95
E 35 58 104
E 35 59 97
E 35 60 107
E 35 61 102
E 35 62 98
E 35 63 92
E 35 64 96
E 35 65 92
E 35 66 99
E 35 67 89
E 35 68 102
E 35 69 99
E 35 70 91
E 35 71 99
E 35 72 94
E 35 73 98
E 35 74 100
E 35 75 84
E 35 76 99
E 35 77 98
E 35 78 94
E 35 79 109
E 35 80 98
E 36 37 101
E 36 38 82
E 36 39 97
E 36 40 96
E 36 41 101
E 36 42 103
E 36 43 104
E 36 44 95
E 36 45 99
E 36 46 100
E 36 47 98
E 36 48 100
E 36 49 101
E 36 50 105
E 36 51 110
E 36 52 96
E 36 53 109
E 36 54 102
E 36 55 106
E 36 56 107
E 36 57 104
E 36 58 98
E 36 59 99
E 36 60 98
E 36 61 100
E 36 62 90
E 36 63 118
E 36 64 101
E 36 65 106
E 36 66 95
E 36 67 100
E 36 68 94
E 36 69 94
E 36 70 99
E 36 71 109
E 36 72 100
E 36 73 101
E 36 74 98
E 36 75 95
E 36 76 102
E 36 77 96
E 36 78 96
E 36 79 98
E 36 80 102
E 37 38 100
E 37 39 97
E 37 40 97
E 37 41 98
E 37 42 94
E 37 43 98
E 37 44 89
E 37 45 110
E 37 46 103
E 37 47 100
E 37 48 98
E 37 49 103
E 37 50 102
E 37 51 105
E 37 52 105
E 37 53 111
E 37 54 102
E 37 55 102
E 37 56 104
E 37 57 103
E 37 58 101
E 37 59 103
E 37 60 104
E 37 61 90
E 37 62 101
E 37 63 96
E 37 64 95
E 37 65 105
E 37 66 98
E 37 67 98
E 37 68 102
E 37 69 104
E 37 70 102
E 37 71 98
E 37 72 98
E 37 73 98
E 37 74 99
E 37 75 89
E 37 76 97
E 37 77 106
E 37 78 101
E 37 79 101
E 37 80 103
E 38 39 101
E 38 40 103
E 38 41 94
E 38 42 98
E 38 43 97
E 38 44 95
E 38 45 104
E 38 46 99
E 38 47 98
E 38 48 96
E 38 49 105
E 38 50 109
E 38 51 98
E 38 52 105
E 38 53 101
E 38 54 104
E 38 55 99
E 38 56 110
E 38 57 96
E 38 58 100
E 38 59 104
E 38 60 102
E 38 61 105
E 38 62 99
E 38 63 101
E 38 64 100
E 38 65 102
E 38 66 97
E 38 67 98
E 38 68 99
E 38 69 97
E 38 70 89
E 38 71 102
E 38 72 104
E 38 73 91
E 38 74 101
E 38 75 103
E 38 76 98
E 38 77 94
E 38 78 104
E 38 79 101
E 38 80 97
E 39 40 96
E 39 41 100
E 39 42 111
E 39 43 103
E 39 44 93
E 39 45 100
E 39 46 106
E 39 47 90
E 39 48 107
E 39 49 104
E 39 50 105
E 39 51 96
E 39 52 87
E 39 53 99
E 39 54 97
E 39 55 99
E 39 56 100
E 39 57 103
E 39 58 105
E 39 59 103
E 39 60 104
E 39 61 103
E 39 62 106
E 39 63 104
E 39 64 92
E 39 65 104
E 39 66 98
E 39 67 102
E 39 68 97
E 39 69 103
E 39 70 98
E 39 71 108
E 39 72 98
E 39 73 99
E 39 74 93
E 39 75 96
E 39 76 105
E 39 77 106
E 39 78 99
E 39 79 98
E 39 80 100
E 40 41 93
E 40 42 104
E 40 43 103
E 40 44 100
E 40 45 97
E 40 46 112
E 40 47 93
E 40 48 95
E 40 49 108
E 40 50 99
E 40 51 102
E 40 52 101
E 40 53 94
E 40 54 105
E 40 55 96
E 40 56 97
E 40 57 105
E 40 58 104
E 40 59 95
E 40 60 89
E 40 61 100
E 40 62 101
E 40 63 104
E 40 64 104
E 40 65 100
E 40 66 93
E 40 67 96
E 40 68 96
E 40 69 92
E 40 70 101
E 40 71 107
E 40 72 99
E 40 73 101
E 40 74 101
E 40 75 97
E 40 76 96
E 40 77 104
E 40 78 112
E 40 79 97
E 40 80 100
E 41 42 105
E 41 43 104
E 41 44 102
E 41 45 93
E 41 46 111
E 41 47 100
E 41 48 93
E 41 49 104
E 41 50 104
E 41 51 98
E 41 52 112
E 41 53 97
E 41 54 93
E 41 55 103
E 41 56 105
E 41 57 102
E 41 58 97
E 41 59 106
E 41 60 93
E 41 61 102
E 41 62 104
E 41 63 100
E 41 64 103
E 41 65 100
E 41 66 93
E 41 67 102
E 41 68 98
E 41 69 91
E 41 70 108
E 41 71 99
E 41 72 103
E 41 73 99
E 41 74 98
E 41 75 95
E 41 76 105
E 41 77 106
E 41 78 99
E 41 79 109
E 41 80 87
E 42 43 99
E 42 44 104
E 42 45 108
E 42 46 97
E 42 47 109
E 42 48 104
E 42 49 101
E 42 50 102
E 42 51 107
E 42 52 96
E 42 53 99
E 42 54 98
E 42 55 103
E 42 56 98
E 42 57 102
E 42 58 108
E 42 59 89
E 42 60 102
E 42 61 106
E 42 62 95
E 42 63 99
E 42 64 99
E 42 65 99
E 42 66 96
E 42 67 104
E 42 68 97
E 42 69 98
E 42 70 99
E 42 71 96
E 42 72 94
E 42 73 101
E 42 74 96
E 42 75 102
E 42 76 95
E 42 77 96
E 42 78 101
E 42 79 107
E 42 80 101
E 43 44 94
E 43 45 100
E 43 46 110
E 43 47 106
E 43 48 105
E 43 49 98
E 43 50 111
E 43 51 98
E 43 52 94
E 43 53 88
E 43 54 96
E 43 55 109
E 43 56 97
E 43 57 96
E 43 58 96
E 43 59 101
E 43 60 103
E 43 61 97
E 43 62 102
E 43 63 99
E 43 64 99
E 43 65 114
E 43 66 101
E 43 67 102
E 43 68 103
E 43 69 101
E 43 70 103
E 43 71 103
E 43 72 97
E 43 73 106
E 43 74 99
E 43 75 108
E 43 76 94
E 43 77 101
E 43 78 97
E 43 79 104
E 43 80 94
E 44 45 103
E 44 46 92
E 44 47 103
E 44 48 92
E 44 49 101
E 44 50 97
E 44 51 107
E 44 52 98
E 44 53 100
E 44 54 104
E 44 55 101
E 44 56 109
E 44 57 85
E 44 58 101
E 44 59 97
E 44 60 100
E 44 61 102
E 44 62 101
E 44 63 107
E 44 64 109
E 44 65 106
E 44 66 104
E 44 67 101
E 44 68 99
E 44 69 98
E 44 70 97
E 44 71 104
E 44 72 102
E 44 73 107
E 44 74 94
E 44 75 106
E 44 76 101
E 44 77 102
E 44 78 99
E 44 79 102
E 44 80 85
E 45 46 88
E 45 47 112
E 45 48 94
E 45 49 93
E 45 50 95
E 45 51 97
E 45 52 103
E 45 53 105
E 45 54 103
E 45 55 100
E 45 56 103
E 45 57 101
E 45 58 102
E 45 59 106
E 45 60 98
E 45 61 93
E 45 62 98
E 45 63 99
E 45 64 97
E 45 65 100
E 45 66 97
E 45 67 99
E 45 68 94
E 45 69 103
E 45 70 93
E 45 71 110
E 45 72 101
E 45 73 88
E 45 74 107
E 45 75 95
E 45 76 96
E 45 77 92
E 45 78 98
E 45 79 96
E 45 80 100
E 46 47 93
E 46 48 95
E 46 49 98
E 46 50 93
E 46 51 93
E 46 52 106
E 46 53 95
E 46 54 90
E 46 55 99
E 46 56 95
E 46 57 103
E 46 58 110
E 46 59 106
E 46 60 107
E 46 61 107
E 46 62 92
E 46 63 96
E 46 64 107
E 46 65 97
E 46 66 97
E 46 67 97
E 46 68 98
E 46 69 108
E 46 70 100
E 46 71 101
E 46 72 97
E 46 73 99
E 46 74 102
E 46 75 97
E 46 76 95
E 46 77 105
E 46 78 104
E 46 79 100
E 46 80 99
E 47 48 101
E 47 49 101
E 47 50 101
E 47 51 92
E 47 52 107
E 47 53 96
E 47 54 107
E 47 55 92
E 47 56 94
E 47 57 103
E 47 58 94
E 47 59 102
E 47 60 95
E 47 61 94
E 47 62 99
E 47 63 94
E 47 64 102
E 47 65 94
E 47 66 106
E 47 67 101
E 47 68 103
E 47 69 92
E 47 70 95
E 47 71 85
E 47 72 96
E 47 73 99
E 47 74 111
E 47 75 89
E 47 76 91
E 47 77 99
E 47 78 96
E 47 79 104
E 47 80 102
E 48 49 98
E 48 50 94
E 48 51 107
E 48 52 98
E 48 53 99
E 48 54 107
E 48 55 106
E 48 56 91
E 48 57 99
E 48 58 98
E 48 59 95
E 48 60 99
E 48 61 102
E 48 62 101
E 48 63 101
E 48 64 91
E 48 65 91
E 48 66 101
E 48 67 106
E 48 68 102
E 48 69 101
E 48 70 101
E 48 71 98
E 48 72 102
E 48 73 99
E 48 74 92
E 48 75 100
E 48 76 97
E 48 77 101
E 48 78 94
E 48 79 99
E 48 80 103
E 49 50 93
E 49 51 94
E 49 52 99
E 49 53 108
E 49 54 92
E 49 55 92
E 49 56 112
E 49 57 100
E 49 58 95
E 49 59 95
E 49 60 92
E 49 61 100
E 49 62 101
E 49 63 99
E 49 64 100
E 49 65 106
E 49 66 96
E 49 67 100
E 49 68 97
E 49 69 100
E 49 70 102
E 49 71 91
E 49 72 98
E 49 73 101
E 49 74 100
E 49 75 103
E 49 76 87
E 49 77 90
E 49 78 96
E 49 79 103
E 49 80 95
E 50 51 95
E 50 52 101
E 50 53 97
E 50 54 95
E 50 55 96
E 50 56 103
E 50 57 106
E 50 58 100
E 50 59 89
E 50 60 93
E 50 61 103
E 50 62 104
E 50 63 99
E 50 64 103
E 50 65 105
E 50 66 103
E 50 67 101
E 50 68 104
E 50 69 95
E 50 70 104
E 50 71 101
E 50 72 97
E 50 73 102
E 50 74 106
E 50 75 109
E 50 76 101
E 50 77 100
E 50 78 103
E 50 79 101
E 50 80 99
E 51 52 93
E 51 53 95
E 51 54 97
E 51 55 102
E 51 56 96
E 51 57 104
E 51 58 97
E 51 59 96
E 51 60 97
E 51 61 97
E 51 62 93
E 51 63 111
E 51 64 108
E 51 65 105
E 51 66 94
E 51 67 97
E 51 68 97
E 51 69 106
E 51 70 106
E 51 71 102
E 51 72 99
E 51 73 104
E 51 74 99
E 51 75 106
E 51 76 101
E 51 77 105
E 51 78 96
E 51 79 99
E 51 80 98
E 52 53 100
E 52 54 100
E 52 55 106
E 52 56 92
E 52 57 100
E 52 58 108
E 52 59 105
E 52 60 98
E 52 61 105
E 52 62 106
E 52 63 92
E 52 64 98
E 52 65 94
E 52 66 102
E 52 67 98
E 52 68 101
E 52 69 100
E 52 70 107
E 52 71 93
E 52 72 93
E 52 73 93
E 52 74 97
E 52 75 95
E 52 76 104
E 52 77 102
E 52 78 100
E 52 79 95
E 52 80 102
E 53 54 97
E 53 55 100
E 53 56 105
E 53 57 102
E 53 58 99
E 53 59 105
E 53 60 94
E 53 61 102
E 53 62 97
E 53 63 97
E 53 64 108
E 53 65 94
E 53 66 99
E 53 67 105
E 53 68 108
E 53 69 100
E 53 70 100
E 53 71 87
E 53 72 105
E 53 73 101
E 53 74 106
E 53 75 101
E 53 76 94
E 53 77 94
E 53 78 98
E 53 79 103
E 53 80 88
E 54 55 94
E 54 56 98
E 54 57 98
E 54 58 99
E 54 59 103
E 54 60 104
E 54 61 110
E 54 62 107
E 54 63 101
E 54 64 100
E 54 65 104
E 54 66 99
E 54 67 95
E 54 68 96
E 54 69 97
E 54 70 89
E 54 71 96
E 54 72 107
E 54 73 100
E 54 74 106
E 54 75 96
E 54 76 96
E 54 77 101
E 54 78 96
E 54 79 92
E 54 80 105
E 55 56 107
E 55 57 92
E 55 58 100
E 55 59 93
E 55 60 104
E 55 61 94
E 55 62 98
E 55 63 105
E 55 64 98
E 55 65 103
E 55 66 103
E 55 67 100
E 55 68 98
E 55 69 105
E 55 70 108
E 55 71 100
E 55 72 102
E 55 73 100
E 55 74 99
E 55 75 103
E 55 76 104
E 55 77 97
E 55 78 100
E 55 79 97
E 55 80 105
E 56 57 100
E 56 58 106
E 56 59 93
E 56 60 93
E 56 61 100
E 56 62 96
E 56 63 101
E 56 64 102
E 56 65 97
E 56 66 101
E 56 67 97
E 56 68 98
E 56 69 99
E 56 70 101
E 56 71 91
E 56 72 98
E 56 73 101
E 56 74 99
E 56 75 90
E 56 76 102
E 56 77 96
E 56 78 108
E 56 79 100
E 56 80 98
E 57 58 97
E 57 59 93
E 57 60 99
E 57 61 107
E 57 62 99
E 57 63 96
E 57 64 97
E 57 65 102
E 57 66 101
E 57 67 96
E 57 68 104
E 57 69 101
E 57 70 100
E 57 71 98
E 57 72 105
E 57 73 105
E 57 74 92
E 57 75 105
E 57 76 89
E 57 77 92
E 57 78 96
E 57 79 107
E 57 80 99
E 58 59 110
E 58 60 94
E 58 61 101
E 58 62 99
E 58 63 98
E 58 64 94
E 58 65 98
E 58 66 101
E 58 67 88
E 58 68 99
E 58 69 99
E 58 70 95
E 58 71 102
E 58 72 95
E 58 73 100
E 58 74 101
E 58 75 97
E 58 76 100
E 58 77 92
E 58 78 96
E 58 79 99
E 58 80 102
E 59 60 99
E 59 61 98
E 59 62 96
E 59 63 101
E 59 64 97
E 59 65 109
E 59 66 98
E 59 67 101
E 59 68 94
E 59 69 105
E 59 70 106
E 59 71 104
E 59 72 102
E 59 73 99
E 59 74 98
E 59 75 98
E 59 76 105
E 59 77 94
E 59 78 97
E 59 79 103
E 59 80 98
E 60 61 98
E 60 62 100
E 60 63 93
E 60 64 100
E 60 65 99
E 60 66 103
E 60 67 104
E 60 68 97
E 60 69 94
E 60 70 100
E 60 71 100
E 60 72 108
E 60 73 102
E 60 74 101
E 60 75 100
E 60 76 100
E 60 77 95
E 60 78 103
E 60 79 104
E 60 80 99
E 61 62 91
E 61 63 98
E 61 64 99
E 61 65 91
E 61 66 101
E 61 67 99
E 61 68 109
E 61 69 102
E 61 70 106
E 61 71 100
E 61 72 107
E 61 73 95
E 61 74 100
E 61 75 100
E 61 76 97
E 61 77 98
E 61 78 102
E 61 79 87
E 61 80 98
E 62 63 105
E 62 64 90
E 62 65 94
E 62 66 101
E 62 67 103
E 62 68 104
E 62 69 110
E 62 70 94
E 62 71 96
E 62 72 98
E 62 73 103
E 62 74 95
E 62 75 103
E 62 76 93
E 62 77 101
E 62 78 102
E 62 79 100
E 62 80 107
E 63 64 97
E 63 65 99
E 63 66 99
E 63 67 94
E 63 68 103
E 63 69 100
E 63 70 102
E 63 71 100
E 63 72 102
E 63 73 103
E 63 74 95
E 63 75 103
E 63 76 94
E 63 77 97
E 63 78 107
E 63 79 97
E 63 80 101
E 64 65 97
E 64 66 98
E 64 67 100
E 64 68 95
E 64 69 100
E 64 70 107
E 64 71 101
E 64 72 96
E 64 73 110
E 64 74 104
E 64 75 92
E 64 76 100
E 64 77 103
E 64 78 92
E 64 79 91
E 64 80 103
E 65 66 95
E 65 67 96
E 65 68 106
E 65 69 99
E 65 70 93
E 65 71 96
E 65 72 103
E 65 73 100
E 65 74 101
E 65 75 106
E 65 76 103
E 65 77 95
E 65 78 100
E 65 79 99
E 65 80 99
E 66 67 103
E 66 68 88
E 66 69 98
E 66 70 91
E 66 71 100
E 66 72 101
E 66 73 95
E 66 74 101
E 66 75 100
E 66 76 106
E 66 77 95
E 66 78 101
E 66 79 98
E 66 80 106
E 67 68 106
E 67 69 92
E 67 70 95
E 67 71 99
E 67 72 94
E 67 73 103
E 67 74 95
E 67 75 105
E 67 76 97
E 67 77 103
E 67 78 95
E 67 79 103
E 67 80 100
E 68 69 96
E 68 70 95
E 68 71 102
E 68 72 102
E 68 73 108
E 68 74 109
E 68 75 99
E 68 76 100
E 68 77 102
E 68 78 100
E 68 79 106
E 68 80 99
E 69 70 99
E 69 71 89
E 69 72 93
E 69 73 98
E 69 74 97
E 69 75 99
E 69 76 97
E 69 77 104
E 69 78 96
E 69 79 109
E 69 80 99
E 70 71 94
E 70 72 97
E 70 73 100
E 70 74 104
E 70 75 105
E 70 76 112
E 70 77 100
E 70 78 99
E 70 79 103
E 70 80 102
E 71 72 102
E 71 73 100
E 71 74 102
E 71 75 102
E 71 76 99
E 71 77 98
E 71 78 96
E 71 79 104
E 71 80 94
E 72 73 99
E 72 74 95
E 72 75 97
E 72 76 103
E 72 77 101
E 72 78 96
E 72 79 113
E 72 80 96
E 73 74 97
E 73 75 101
E 73 76 88
E 73 77 106
E 73 78 108
E 73 79 102
E 73 80 102
E 74 75 106
E 74 76 98
E 74 77 99
E 74 78 102
E 74 79 91
E 74 80 103
E 75 76 98
E 75 77 99
E 75 78 104
E 75 79 97
E 75 80 99
E 76 77 94
E 76 78 97
E 76 79 102
E 76 80 99
E 77 78 94
E 77 79 93
E 77 80 99
E 78 79 99
E 78 80 103
E 79 80 107
END

SECTION Terminals
Terminals 20
T 1
T 2
T 3
T 4
T 5
T 6
T 7
T 8
T 9
T 10
T 11
T 12
T 13
T 14
T 15
T 16
T 17
T 18
T 19
T 20
END

EOF
